c defined variables: 33 34 35 36 37 38 39 40 41 42 43 44 45 46 47 48 49 50 51 52 53 54 55 56 57 58 59 60 61 62 63 64 65 66 67 68 69 70 71 72 73 74 75 76 77 78 79 80 81 82 83 84 85 86 87 88 89 90 91 92 93 94 95 96 97 98 99 100 101 102 103 104 105 106 107 108 109 110 111 112 113 114 115 116 117 118 119 120 121 122 123 124 125 126 127 128 129 130 131 132 133 134 135 136 137 138 139 140 141 142 143 144 145 146 147 148 149 150 151 152 153 154 155 156 157 158 159 160 161 162 163 164 165 166 167 190 191 192 193 194 195 196 197 198 199 200 201 202 203 204 205 206 207 208 209 210 211 212 213 214 215 216 217 218 219 220 221 222 223 224 225 226 227 228 229 230 231 233 234 236 237 238 239 241 242 243 244 245 248 249 250 251 252 253 254 255 256 257 258 259 260 261 262 263 265 266 267 268 269 270 271 272 273 274 275 276 277 278 279 281 282 283 284 285 286 287 288 289 290 291 292 293 294 295 296 297 298 299 300 301 302 303 304 305 306 307 308 310 311 312 313 314 315 316 317 318 319 320 321 323 324 325 326 327 328 329 
p cnf 1451 2167
a 1 2 3 4 5 6 7 8 9 10 11 12 13 14 15 16 17 18 19 20 21 22 23 24 25 26 27 28 29 30 31 32 174 175 176 177 178 179 180 181 182 183 184 185 186 187 188 189 0
e 33 34 35 36 37 38 39 40 41 42 43 44 45 46 47 48 49 50 51 52 53 54 55 56 57 58 59 60 61 62 63 64 65 66 67 68 69 70 71 72 73 74 75 76 77 78 79 80 81 82 83 84 85 86 87 88 89 90 91 92 93 94 95 96 97 98 99 100 101 102 103 104 105 106 107 108 109 110 111 112 113 114 115 116 117 118 119 120 121 122 123 124 125 126 127 128 129 130 131 132 133 134 135 136 137 138 139 140 141 142 143 144 145 146 147 148 149 150 151 152 153 154 155 156 157 158 159 160 161 162 163 164 165 166 167 190 191 192 193 194 195 196 197 198 199 200 201 202 203 204 205 206 207 208 209 210 211 212 213 214 215 216 217 218 219 220 221 222 223 224 225 226 227 228 229 230 231 233 234 236 237 238 239 241 242 243 244 245 248 249 250 251 252 253 254 255 256 257 258 259 260 261 262 263 265 266 267 268 269 270 271 272 273 274 275 276 277 278 279 281 282 283 284 285 286 287 288 289 290 291 292 293 294 295 296 297 298 299 300 301 302 303 304 305 306 307 308 310 311 312 313 314 315 316 317 318 319 320 321 323 324 325 326 327 328 329 1194 1195 1196 1197 1198 1199 1200 1201 1202 1203 1204 1205 1206 1207 1208 1209 1210 1211 1212 1213 1214 1215 1216 1217 1218 1219 1220 1221 1222 1223 1224 1225 1226 1227 1228 1229 1230 1231 1232 1233 1234 1235 1236 1237 1238 1239 1240 1241 1242 1243 1244 1245 1246 1247 1248 1249 1250 1251 1252 1253 1254 1255 1256 1257 1258 1259 1260 1261 1262 1263 1264 1265 1266 1267 1268 1269 1270 1271 1272 1273 1274 1275 1276 1277 1278 1279 1280 1281 1282 1283 1284 1285 1286 1287 1288 1289 1290 1291 1292 1293 1294 1295 1296 1297 1298 1299 1300 1301 1302 1303 1304 1305 1306 1307 1308 1309 1310 1311 1312 1313 1314 1315 1316 1317 1318 1319 1320 1321 1322 1323 1324 1325 1326 1327 1328 1329 1330 1331 1332 1333 1334 1335 1336 1337 1338 1339 1340 1341 1342 1343 1344 1345 1346 1347 1348 1349 1350 1351 1352 1353 1354 1355 1356 1357 1358 1359 1360 1361 1362 1363 1364 1365 1366 1367 1368 1369 1370 1371 1372 1373 1374 1375 1376 1377 1378 1379 1380 1381 1382 1383 1384 1385 1386 1387 1388 1389 1390 1391 1392 1393 1394 1395 1396 1397 1398 1399 1400 1401 1402 1403 1404 1405 1406 1407 1408 1409 1410 1411 1412 1413 1414 1415 1416 1417 1418 1419 1420 1421 1422 1423 1424 1425 1426 1427 1428 1429 1430 1431 1432 1433 1434 1435 1436 1437 1438 1439 1440 1441 1442 1443 1444 1445 1446 1447 1448 1449 1450 1451 0
d 168 174 175 0
d 169 178 179 0
d 170 176 177 0
d 171 180 181 0
d 172 182 183 184 185 186 187 188 189 0
d 173 182 183 184 185 186 187 188 189 0
d 232 1 2 3 4 5 6 7 8 9 10 11 12 13 14 15 16 17 18 19 20 21 22 23 24 25 26 27 28 29 30 31 32 174 175 176 177 178 179 180 181 182 183 184 185 186 187 188 189 0
d 235 1 2 3 4 5 6 7 8 9 10 11 12 13 14 15 16 17 18 19 20 21 22 23 24 25 26 27 28 29 30 31 32 174 175 176 177 178 179 180 181 182 183 184 185 186 187 188 189 0
d 240 1 2 3 4 5 6 7 8 9 10 11 12 13 14 15 16 17 18 19 20 21 22 23 24 25 26 27 28 29 30 31 32 174 175 176 177 178 179 180 181 182 183 184 185 186 187 188 189 0
d 246 1 2 3 4 5 6 7 8 9 10 11 12 13 14 15 16 17 18 19 20 21 22 23 24 25 26 27 28 29 30 31 32 174 175 176 177 178 179 180 181 182 183 184 185 186 187 188 189 0
d 247 1 2 3 4 5 6 7 8 9 10 11 12 13 14 15 16 17 18 19 20 21 22 23 24 25 26 27 28 29 30 31 32 174 175 176 177 178 179 180 181 182 183 184 185 186 187 188 189 0
d 264 1 2 3 4 5 6 7 8 9 10 11 12 13 14 15 16 17 18 19 20 21 22 23 24 25 26 27 28 29 30 31 32 174 175 176 177 178 179 180 181 182 183 184 185 186 187 188 189 0
d 280 1 2 3 4 5 6 7 8 9 10 11 12 13 14 15 16 17 18 19 20 21 22 23 24 25 26 27 28 29 30 31 32 174 175 176 177 178 179 180 181 182 183 184 185 186 187 188 189 0
d 309 1 2 3 4 5 6 7 8 9 10 11 12 13 14 15 16 17 18 19 20 21 22 23 24 25 26 27 28 29 30 31 32 174 175 176 177 178 179 180 181 182 183 184 185 186 187 188 189 0
d 322 1 2 3 4 5 6 7 8 9 10 11 12 13 14 15 16 17 18 19 20 21 22 23 24 25 26 27 28 29 30 31 32 174 175 176 177 178 179 180 181 182 183 184 185 186 187 188 189 0
1195 -33 0
-1195 33 0
1196 -34 0
-1196 34 0
-1197 -35 0
1197 35 0
1198 -36 0
-1198 36 0
1199 -37 0
-1199 37 0
-1200 -38 0
1200 38 0
1201 -39 0
-1201 39 0
1202 -40 0
-1202 40 0
-1203 -41 0
1203 41 0
-12 -42 0
12 42 0
-1204 -43 0
1204 43 0
-11 -44 0
11 44 0
-1205 -45 0
1205 45 0
-10 -46 0
10 46 0
-1206 -47 0
1206 47 0
-9 -48 0
9 48 0
-1207 -49 0
1207 49 0
-49 -50 0
49 50 0
1208 -51 0
-1208 51 0
1210 -52 0
-1210 52 0
1212 -53 0
-1212 53 0
-1215 -54 0
1215 54 0
1216 -55 0
-1216 55 0
1217 -56 0
-1217 56 0
-1218 -57 0
1218 57 0
1219 -58 0
-1219 58 0
1220 -59 0
-1220 59 0
1221 -60 0
-1221 60 0
1222 -61 0
-1222 61 0
-1223 -62 0
1223 62 0
1224 -63 0
-1224 63 0
1225 -64 0
-1225 64 0
-1226 -65 0
1226 65 0
1227 -66 0
-1227 66 0
1228 -67 0
-1228 67 0
-1229 -68 0
1229 68 0
1230 -69 0
-1230 69 0
1231 -70 0
-1231 70 0
-1232 -71 0
1232 71 0
-8 -72 0
8 72 0
-1233 -73 0
1233 73 0
-7 -74 0
7 74 0
-1234 -75 0
1234 75 0
-6 -76 0
6 76 0
-1235 -77 0
1235 77 0
-5 -78 0
5 78 0
-1236 -79 0
1236 79 0
-79 -80 0
79 80 0
1237 -81 0
-1237 81 0
1239 -82 0
-1239 82 0
1241 -83 0
-1241 83 0
-1244 -84 0
1244 84 0
1245 -85 0
-1245 85 0
1246 -86 0
-1246 86 0
-1247 -87 0
1247 87 0
1248 -88 0
-1248 88 0
1249 -89 0
-1249 89 0
1250 -90 0
-1250 90 0
1251 -91 0
-1251 91 0
-1252 -92 0
1252 92 0
1253 -93 0
-1253 93 0
1254 -94 0
-1254 94 0
-1255 -95 0
1255 95 0
1256 -96 0
-1256 96 0
1257 -97 0
-1257 97 0
-1258 -98 0
1258 98 0
1259 -99 0
-1259 99 0
1260 -100 0
-1260 100 0
-1261 -101 0
1261 101 0
-4 -102 0
4 102 0
-1262 -103 0
1262 103 0
-3 -104 0
3 104 0
-1263 -105 0
1263 105 0
-2 -106 0
2 106 0
-1264 -107 0
1264 107 0
-1 -108 0
1 108 0
-1265 -109 0
1265 109 0
-109 -110 0
109 110 0
1266 -111 0
-1266 111 0
1268 -112 0
-1268 112 0
1270 -113 0
-1270 113 0
-1273 -114 0
1273 114 0
1274 -115 0
-1274 115 0
1275 -116 0
-1275 116 0
-1276 -117 0
1276 117 0
1277 -118 0
-1277 118 0
1278 -119 0
-1278 119 0
1279 -120 0
-1279 120 0
1280 -121 0
-1280 121 0
-1281 -122 0
1281 122 0
1282 -123 0
-1282 123 0
1283 -124 0
-1283 124 0
-1284 -125 0
1284 125 0
1285 -126 0
-1285 126 0
1286 -127 0
-1286 127 0
-1287 -128 0
1287 128 0
1288 -129 0
-1288 129 0
1289 -130 0
-1289 130 0
-1290 -131 0
1290 131 0
-16 -132 0
16 132 0
-1291 -133 0
1291 133 0
-15 -134 0
15 134 0
-1292 -135 0
1292 135 0
-14 -136 0
14 136 0
-1293 -137 0
1293 137 0
-13 -138 0
13 138 0
-1294 -139 0
1294 139 0
-139 -140 0
139 140 0
1295 -141 0
-1295 141 0
1297 -142 0
-1297 142 0
1299 -143 0
-1299 143 0
-1302 -144 0
1302 144 0
1303 -145 0
-1303 145 0
1304 -146 0
-1304 146 0
-1305 -147 0
1305 147 0
1306 -148 0
-1306 148 0
1307 -149 0
-1307 149 0
-144 -150 0
144 150 0
-1308 -151 0
1308 151 0
-54 -152 0
54 152 0
-1309 -153 0
1309 153 0
-84 -154 0
84 154 0
-1310 -155 0
1310 155 0
-114 -156 0
114 156 0
-1311 -157 0
1311 157 0
-157 -158 0
157 158 0
1312 -159 0
-1312 159 0
1314 -160 0
-1314 160 0
1316 -161 0
-1316 161 0
-1319 -162 0
1319 162 0
1320 -163 0
-1320 163 0
1321 -164 0
-1321 164 0
-1322 -165 0
1322 165 0
1323 -166 0
-1323 166 0
1324 -167 0
-1324 167 0
1195 -190 0
-1195 190 0
1196 -191 0
-1196 191 0
-1325 -192 0
1325 192 0
1198 -193 0
-1198 193 0
1199 -194 0
-1199 194 0
-1326 -195 0
1326 195 0
1201 -196 0
-1201 196 0
1202 -197 0
-1202 197 0
-1327 -198 0
1327 198 0
-12 -199 0
12 199 0
-1328 -200 0
1328 200 0
-11 -201 0
11 201 0
-1329 -202 0
1329 202 0
-10 -203 0
10 203 0
-1330 -204 0
1330 204 0
-9 -205 0
9 205 0
-1331 -206 0
1331 206 0
-206 -207 0
206 207 0
1332 -208 0
-1332 208 0
1334 -209 0
-1334 209 0
1336 -210 0
-1336 210 0
-1339 -211 0
1339 211 0
1216 -212 0
-1216 212 0
1217 -213 0
-1217 213 0
-1340 -214 0
1340 214 0
1341 -215 0
-1341 215 0
1342 -216 0
-1342 216 0
1343 -217 0
-1343 217 0
1344 -218 0
-1344 218 0
-1345 -219 0
1345 219 0
1227 -220 0
-1227 220 0
1228 -221 0
-1228 221 0
-1346 -222 0
1346 222 0
1230 -223 0
-1230 223 0
1231 -224 0
-1231 224 0
-1347 -225 0
1347 225 0
-8 -226 0
8 226 0
-1348 -227 0
1348 227 0
-7 -228 0
7 228 0
-1349 -229 0
1349 229 0
-6 -230 0
6 230 0
-1350 -231 0
1350 231 0
1351 -233 0
-1351 233 0
1353 -234 0
-1353 234 0
-1356 -236 0
1356 236 0
1245 -237 0
-1245 237 0
1246 -238 0
-1246 238 0
-1357 -239 0
1357 239 0
1358 -241 0
-1358 241 0
-236 -242 0
236 242 0
-1359 -243 0
1359 243 0
1360 -244 0
-1360 244 0
1194 -245 0
-1194 245 0
-1361 -248 0
1361 248 0
1282 -249 0
-1282 249 0
1283 -250 0
-1283 250 0
-1362 -251 0
1362 251 0
1285 -252 0
-1285 252 0
1286 -253 0
-1286 253 0
-1363 -254 0
1363 254 0
1288 -255 0
-1288 255 0
1289 -256 0
-1289 256 0
-1364 -257 0
1364 257 0
-16 -258 0
16 258 0
-1365 -259 0
1365 259 0
-15 -260 0
15 260 0
-1366 -261 0
1366 261 0
-14 -262 0
14 262 0
-1367 -263 0
1367 263 0
1368 -265 0
-1368 265 0
1370 -266 0
-1370 266 0
1372 -267 0
-1372 267 0
-1375 -268 0
1375 268 0
1303 -269 0
-1303 269 0
1304 -270 0
-1304 270 0
-1376 -271 0
1376 271 0
1377 -272 0
-1377 272 0
1378 -273 0
-1378 273 0
-268 -274 0
268 274 0
-1379 -275 0
1379 275 0
-211 -276 0
211 276 0
-1380 -277 0
1380 277 0
-236 -278 0
236 278 0
-1381 -279 0
1381 279 0
-1382 -281 0
1382 281 0
-281 -282 0
281 282 0
1383 -283 0
-1383 283 0
-1194 -284 0
1194 284 0
-1194 -285 0
1194 285 0
-1384 -286 0
1384 286 0
1385 -287 0
-1385 287 0
1386 -288 0
-1386 288 0
-1387 -289 0
1387 289 0
-1194 -290 0
1194 290 0
1388 -291 0
-1388 291 0
1256 -292 0
-1256 292 0
1257 -293 0
-1257 293 0
-1389 -294 0
1389 294 0
1259 -295 0
-1259 295 0
1260 -296 0
-1260 296 0
-1390 -297 0
1390 297 0
-4 -298 0
4 298 0
-1391 -299 0
1391 299 0
-3 -300 0
3 300 0
-1392 -301 0
1392 301 0
-2 -302 0
2 302 0
-1393 -303 0
1393 303 0
-1 -304 0
1 304 0
-1394 -305 0
1394 305 0
1274 -306 0
-1274 306 0
1275 -307 0
-1275 307 0
-1395 -308 0
1395 308 0
1398 -310 0
-1398 310 0
1401 -311 0
-1401 311 0
1404 -312 0
-1404 312 0
1406 -313 0
-1406 313 0
1409 -314 0
-1409 314 0
1412 -315 0
-1412 315 0
1415 -316 0
-1415 316 0
1418 -317 0
-1418 317 0
1421 -318 0
-1421 318 0
1424 -319 0
-1424 319 0
1427 -320 0
-1427 320 0
1430 -321 0
-1430 321 0
1433 -323 0
-1433 323 0
1436 -324 0
-1436 324 0
1439 -325 0
-1439 325 0
1442 -326 0
-1442 326 0
-1445 -327 0
1445 327 0
-1448 -328 0
1448 328 0
1451 -329 0
-1451 329 0
-33 -11 0
-33 27 0
11 -27 33 0
-34 11 0
-34 -27 0
-11 27 34 0
-33 35 0
-34 35 0
-35 33 34 0
-36 -10 0
-36 26 0
10 -26 36 0
-37 10 0
-37 -26 0
-10 26 37 0
-36 38 0
-37 38 0
-38 36 37 0
-39 -9 0
-39 25 0
9 -25 39 0
-40 9 0
-40 -25 0
-9 25 40 0
-39 41 0
-40 41 0
-41 39 40 0
-12 -42 0
12 42 0
-42 43 0
-28 43 0
-43 42 28 0
-11 -44 0
11 44 0
-44 45 0
-27 45 0
-45 44 27 0
-10 -46 0
10 46 0
-46 47 0
-26 47 0
-47 46 26 0
-9 -48 0
9 48 0
-48 49 0
-25 49 0
-49 48 25 0
-49 -50 0
49 50 0
-51 -41 0
-51 -47 0
41 47 51 0
-52 -38 0
-52 -41 0
-52 -45 0
38 41 45 52 0
-53 -35 0
-53 -38 0
-53 -41 0
-53 -43 0
35 38 41 43 53 0
-50 54 0
-51 54 0
-52 54 0
-53 54 0
-54 50 51 52 53 0
-55 -12 0
-55 28 0
12 -28 55 0
-56 12 0
-56 -28 0
-12 28 56 0
-55 57 0
-56 57 0
-57 55 56 0
-58 -57 0
-58 -35 0
-58 -38 0
-58 -41 0
57 35 38 41 58 0
-59 -54 0
-59 -58 0
54 58 59 0
-60 -54 0
-60 59 0
54 -59 60 0
-61 54 0
-61 -59 0
-54 59 61 0
-60 62 0
-61 62 0
-62 60 61 0
-63 -7 0
-63 23 0
7 -23 63 0
-64 7 0
-64 -23 0
-7 23 64 0
-63 65 0
-64 65 0
-65 63 64 0
-66 -6 0
-66 22 0
6 -22 66 0
-67 6 0
-67 -22 0
-6 22 67 0
-66 68 0
-67 68 0
-68 66 67 0
-69 -5 0
-69 21 0
5 -21 69 0
-70 5 0
-70 -21 0
-5 21 70 0
-69 71 0
-70 71 0
-71 69 70 0
-8 -72 0
8 72 0
-72 73 0
-24 73 0
-73 72 24 0
-7 -74 0
7 74 0
-74 75 0
-23 75 0
-75 74 23 0
-6 -76 0
6 76 0
-76 77 0
-22 77 0
-77 76 22 0
-5 -78 0
5 78 0
-78 79 0
-21 79 0
-79 78 21 0
-79 -80 0
79 80 0
-81 -71 0
-81 -77 0
71 77 81 0
-82 -68 0
-82 -71 0
-82 -75 0
68 71 75 82 0
-83 -65 0
-83 -68 0
-83 -71 0
-83 -73 0
65 68 71 73 83 0
-80 84 0
-81 84 0
-82 84 0
-83 84 0
-84 80 81 82 83 0
-85 -8 0
-85 24 0
8 -24 85 0
-86 8 0
-86 -24 0
-8 24 86 0
-85 87 0
-86 87 0
-87 85 86 0
-88 -87 0
-88 -65 0
-88 -68 0
-88 -71 0
87 65 68 71 88 0
-89 -84 0
-89 -88 0
84 88 89 0
-90 -84 0
-90 89 0
84 -89 90 0
-91 84 0
-91 -89 0
-84 89 91 0
-90 92 0
-91 92 0
-92 90 91 0
-93 -3 0
-93 19 0
3 -19 93 0
-94 3 0
-94 -19 0
-3 19 94 0
-93 95 0
-94 95 0
-95 93 94 0
-96 -2 0
-96 18 0
2 -18 96 0
-97 2 0
-97 -18 0
-2 18 97 0
-96 98 0
-97 98 0
-98 96 97 0
-99 -1 0
-99 17 0
1 -17 99 0
-100 1 0
-100 -17 0
-1 17 100 0
-99 101 0
-100 101 0
-101 99 100 0
-4 -102 0
4 102 0
-102 103 0
-20 103 0
-103 102 20 0
-3 -104 0
3 104 0
-104 105 0
-19 105 0
-105 104 19 0
-2 -106 0
2 106 0
-106 107 0
-18 107 0
-107 106 18 0
-1 -108 0
1 108 0
-108 109 0
-17 109 0
-109 108 17 0
-109 -110 0
109 110 0
-111 -101 0
-111 -107 0
101 107 111 0
-112 -98 0
-112 -101 0
-112 -105 0
98 101 105 112 0
-113 -95 0
-113 -98 0
-113 -101 0
-113 -103 0
95 98 101 103 113 0
-110 114 0
-111 114 0
-112 114 0
-113 114 0
-114 110 111 112 113 0
-115 -4 0
-115 20 0
4 -20 115 0
-116 4 0
-116 -20 0
-4 20 116 0
-115 117 0
-116 117 0
-117 115 116 0
-118 -117 0
-118 -95 0
-118 -98 0
-118 -101 0
117 95 98 101 118 0
-119 -114 0
-119 -118 0
114 118 119 0
-120 -114 0
-120 119 0
114 -119 120 0
-121 114 0
-121 -119 0
-114 119 121 0
-120 122 0
-121 122 0
-122 120 121 0
-123 -15 0
-123 31 0
15 -31 123 0
-124 15 0
-124 -31 0
-15 31 124 0
-123 125 0
-124 125 0
-125 123 124 0
-126 -14 0
-126 30 0
14 -30 126 0
-127 14 0
-127 -30 0
-14 30 127 0
-126 128 0
-127 128 0
-128 126 127 0
-129 -13 0
-129 29 0
13 -29 129 0
-130 13 0
-130 -29 0
-13 29 130 0
-129 131 0
-130 131 0
-131 129 130 0
-16 -132 0
16 132 0
-132 133 0
-32 133 0
-133 132 32 0
-15 -134 0
15 134 0
-134 135 0
-31 135 0
-135 134 31 0
-14 -136 0
14 136 0
-136 137 0
-30 137 0
-137 136 30 0
-13 -138 0
13 138 0
-138 139 0
-29 139 0
-139 138 29 0
-139 -140 0
139 140 0
-141 -131 0
-141 -137 0
131 137 141 0
-142 -128 0
-142 -131 0
-142 -135 0
128 131 135 142 0
-143 -125 0
-143 -128 0
-143 -131 0
-143 -133 0
125 128 131 133 143 0
-140 144 0
-141 144 0
-142 144 0
-143 144 0
-144 140 141 142 143 0
-145 -16 0
-145 32 0
16 -32 145 0
-146 16 0
-146 -32 0
-16 32 146 0
-145 147 0
-146 147 0
-147 145 146 0
-148 -147 0
-148 -125 0
-148 -128 0
-148 -131 0
147 125 128 131 148 0
-149 -144 0
-149 -148 0
144 148 149 0
-144 -150 0
144 150 0
-150 151 0
-149 151 0
-151 150 149 0
-54 -152 0
54 152 0
-152 153 0
-59 153 0
-153 152 59 0
-84 -154 0
84 154 0
-154 155 0
-89 155 0
-155 154 89 0
-114 -156 0
114 156 0
-156 157 0
-119 157 0
-157 156 119 0
-157 -158 0
157 158 0
-159 -122 0
-159 -155 0
122 155 159 0
-160 -92 0
-160 -122 0
-160 -153 0
92 122 153 160 0
-161 -62 0
-161 -92 0
-161 -122 0
-161 -151 0
62 92 122 151 161 0
-158 162 0
-159 162 0
-160 162 0
-161 162 0
-162 158 159 160 161 0
-163 -144 0
-163 149 0
144 -149 163 0
-164 144 0
-164 -149 0
-144 149 164 0
-163 165 0
-164 165 0
-165 163 164 0
-166 -165 0
-166 -62 0
-166 -92 0
-166 -122 0
165 62 92 122 166 0
-167 -162 0
-167 -166 0
162 166 167 0
-190 -11 0
-190 27 0
11 -27 190 0
-191 11 0
-191 -27 0
-11 27 191 0
-190 192 0
-191 192 0
-192 190 191 0
-193 -10 0
-193 26 0
10 -26 193 0
-194 10 0
-194 -26 0
-10 26 194 0
-193 195 0
-194 195 0
-195 193 194 0
-196 -9 0
-196 25 0
9 -25 196 0
-197 9 0
-197 -25 0
-9 25 197 0
-196 198 0
-197 198 0
-198 196 197 0
-12 -199 0
12 199 0
-199 200 0
-28 200 0
-200 199 28 0
-11 -201 0
11 201 0
-201 202 0
-27 202 0
-202 201 27 0
-10 -203 0
10 203 0
-203 204 0
-26 204 0
-204 203 26 0
-9 -205 0
9 205 0
-205 206 0
-25 206 0
-206 205 25 0
-206 -207 0
206 207 0
-208 -198 0
-208 -204 0
198 204 208 0
-209 -195 0
-209 -198 0
-209 -202 0
195 198 202 209 0
-210 -192 0
-210 -195 0
-210 -198 0
-210 -200 0
192 195 198 200 210 0
-207 211 0
-208 211 0
-209 211 0
-210 211 0
-211 207 208 209 210 0
-212 -12 0
-212 28 0
12 -28 212 0
-213 12 0
-213 -28 0
-12 28 213 0
-212 214 0
-213 214 0
-214 212 213 0
-215 -214 0
-215 -192 0
-215 -195 0
-215 -198 0
214 192 195 198 215 0
-216 -211 0
-216 -215 0
211 215 216 0
-217 -211 0
-217 216 0
211 -216 217 0
-218 211 0
-218 -216 0
-211 216 218 0
-217 219 0
-218 219 0
-219 217 218 0
-220 -6 0
-220 22 0
6 -22 220 0
-221 6 0
-221 -22 0
-6 22 221 0
-220 222 0
-221 222 0
-222 220 221 0
-223 -5 0
-223 21 0
5 -21 223 0
-224 5 0
-224 -21 0
-5 21 224 0
-223 225 0
-224 225 0
-225 223 224 0
-8 -226 0
8 226 0
-226 227 0
-24 227 0
-227 226 24 0
-7 -228 0
7 228 0
-228 229 0
-23 229 0
-229 228 23 0
-6 -230 0
6 230 0
-230 231 0
-22 231 0
-231 230 22 0
-170 -232 0
170 232 0
-233 -225 0
-233 -231 0
225 231 233 0
-234 -222 0
-234 -225 0
-234 -229 0
222 225 229 234 0
-235 -169 0
-235 -222 0
-235 -225 0
-235 -227 0
169 222 225 227 235 0
-232 236 0
-233 236 0
-234 236 0
-235 236 0
-236 232 233 234 235 0
-237 -8 0
-237 24 0
8 -24 237 0
-238 8 0
-238 -24 0
-8 24 238 0
-237 239 0
-238 239 0
-239 237 238 0
-240 -239 0
-240 -169 0
-240 -222 0
-240 -225 0
239 169 222 225 240 0
-241 -236 0
-241 -240 0
236 240 241 0
-236 -242 0
236 242 0
-241 243 0
-242 243 0
-243 241 242 0
-244 236 0
-244 -241 0
-236 241 244 0
-243 245 0
-244 245 0
-245 243 244 0
-246 -173 0
-246 172 0
173 -172 246 0
-247 173 0
-247 -172 0
-173 172 247 0
-246 248 0
-247 248 0
-248 246 247 0
-249 -15 0
-249 31 0
15 -31 249 0
-250 15 0
-250 -31 0
-15 31 250 0
-249 251 0
-250 251 0
-251 249 250 0
-252 -14 0
-252 30 0
14 -30 252 0
-253 14 0
-253 -30 0
-14 30 253 0
-252 254 0
-253 254 0
-254 252 253 0
-255 -13 0
-255 29 0
13 -29 255 0
-256 13 0
-256 -29 0
-13 29 256 0
-255 257 0
-256 257 0
-257 255 256 0
-16 -258 0
16 258 0
-258 259 0
-32 259 0
-259 258 32 0
-15 -260 0
15 260 0
-260 261 0
-31 261 0
-261 260 31 0
-14 -262 0
14 262 0
-262 263 0
-30 263 0
-263 262 30 0
-171 -264 0
171 264 0
-265 -257 0
-265 -263 0
257 263 265 0
-266 -254 0
-266 -257 0
-266 -261 0
254 257 261 266 0
-267 -251 0
-267 -254 0
-267 -257 0
-267 -259 0
251 254 257 259 267 0
-264 268 0
-265 268 0
-266 268 0
-267 268 0
-268 264 265 266 267 0
-269 -16 0
-269 32 0
16 -32 269 0
-270 16 0
-270 -32 0
-16 32 270 0
-269 271 0
-270 271 0
-271 269 270 0
-272 -271 0
-272 -251 0
-272 -254 0
-272 -257 0
271 251 254 257 272 0
-273 -268 0
-273 -272 0
268 272 273 0
-268 -274 0
268 274 0
-274 275 0
-273 275 0
-275 274 273 0
-211 -276 0
211 276 0
-276 277 0
-216 277 0
-277 276 216 0
-236 -278 0
236 278 0
-278 279 0
-241 279 0
-279 278 241 0
-173 -280 0
173 280 0
-280 281 0
-172 281 0
-281 280 172 0
-281 -282 0
281 282 0
-283 -248 0
-283 -279 0
248 279 283 0
-284 -245 0
-284 -248 0
-284 -277 0
245 248 277 284 0
-285 -219 0
-285 -245 0
-285 -248 0
-285 -275 0
219 245 248 275 285 0
-282 286 0
-283 286 0
-284 286 0
-285 286 0
-286 282 283 284 285 0
-287 -268 0
-287 273 0
268 -273 287 0
-288 268 0
-288 -273 0
-268 273 288 0
-287 289 0
-288 289 0
-289 287 288 0
-290 -289 0
-290 -219 0
-290 -245 0
-290 -248 0
289 219 245 248 290 0
-291 -286 0
-291 -290 0
286 290 291 0
-292 -2 0
-292 18 0
2 -18 292 0
-293 2 0
-293 -18 0
-2 18 293 0
-292 294 0
-293 294 0
-294 292 293 0
-295 -1 0
-295 17 0
1 -17 295 0
-296 1 0
-296 -17 0
-1 17 296 0
-295 297 0
-296 297 0
-297 295 296 0
-4 -298 0
4 298 0
-298 299 0
-20 299 0
-299 298 20 0
-3 -300 0
3 300 0
-300 301 0
-19 301 0
-301 300 19 0
-2 -302 0
2 302 0
-302 303 0
-18 303 0
-303 302 18 0
-1 -304 0
1 304 0
-304 305 0
-17 305 0
-305 304 17 0
-306 -4 0
-306 20 0
4 -20 306 0
-307 4 0
-307 -20 0
-4 20 307 0
-306 308 0
-307 308 0
-308 306 307 0
-309 -308 0
-309 -168 0
-309 -294 0
-309 -297 0
308 168 294 297 309 0
-310 -167 291 0
-310 167 -291 0
310 -167 -291 0
310 167 291 0
-311 -166 290 0
-311 166 -290 0
311 -166 -290 0
311 166 290 0
-312 -162 286 0
-312 162 -286 0
312 -162 -286 0
312 162 286 0
-310 -311 -312 313 0
-313 310 0
-313 311 0
-313 312 0
-3 -174 -314 0
-3 174 314 0
3 -174 314 0
3 174 -314 0
-19 -175 -315 0
-19 175 315 0
19 -175 315 0
19 175 -315 0
-5 -176 -316 0
-5 176 316 0
5 -176 316 0
5 176 -316 0
-21 -177 -317 0
-21 177 317 0
21 -177 317 0
21 177 -317 0
-7 -178 -318 0
-7 178 318 0
7 -178 318 0
7 178 -318 0
-23 -179 -319 0
-23 179 319 0
23 -179 319 0
23 179 -319 0
-13 -180 -320 0
-13 180 320 0
13 -180 320 0
13 180 -320 0
-29 -181 -321 0
-29 181 321 0
29 -181 321 0
29 181 -321 0
-168 -182 -322 0
-168 182 322 0
168 -182 322 0
168 182 -322 0
-294 -183 -323 0
-294 183 323 0
294 -183 323 0
294 183 -323 0
-297 -184 -324 0
-297 184 324 0
297 -184 324 0
297 184 -324 0
-299 -185 -325 0
-299 185 325 0
299 -185 325 0
299 185 -325 0
-301 -186 -326 0
-301 186 326 0
301 -186 326 0
301 186 -326 0
-303 -187 -327 0
-303 187 327 0
303 -187 327 0
303 187 -327 0
-305 -188 -328 0
-305 188 328 0
305 -188 328 0
305 188 -328 0
-309 -189 -329 0
-309 189 329 0
309 -189 329 0
309 189 -329 0
314 315 316 317 318 319 320 321 322 323 324 325 326 327 328 329 313 0
1194 0
-11 -1195 0
27 -1195 0
11 -27 1195 0
11 -1196 0
-27 -1196 0
-11 27 1196 0
-33 -1197 0
-34 -1197 0
33 34 1197 0
-10 -1198 0
26 -1198 0
10 -26 1198 0
10 -1199 0
-26 -1199 0
-10 26 1199 0
-36 -1200 0
-37 -1200 0
36 37 1200 0
-9 -1201 0
25 -1201 0
9 -25 1201 0
9 -1202 0
-25 -1202 0
-9 25 1202 0
-39 -1203 0
-40 -1203 0
39 40 1203 0
-28 -1204 0
-42 -1204 0
28 42 1204 0
-27 -1205 0
-44 -1205 0
27 44 1205 0
-26 -1206 0
-46 -1206 0
26 46 1206 0
-25 -1207 0
-48 -1207 0
25 48 1207 0
-41 -1208 0
-47 -1208 0
41 47 1208 0
-38 -1209 0
-41 -1209 0
38 41 1209 0
-45 -1210 0
1209 -1210 0
45 -1209 1210 0
-35 -1211 0
1209 -1211 0
35 -1209 1211 0
-43 -1212 0
1211 -1212 0
43 -1211 1212 0
-50 -1213 0
-51 -1213 0
50 51 1213 0
-52 -1214 0
-53 -1214 0
52 53 1214 0
1213 -1215 0
1214 -1215 0
-1213 -1214 1215 0
-12 -1216 0
28 -1216 0
12 -28 1216 0
12 -1217 0
-28 -1217 0
-12 28 1217 0
-55 -1218 0
-56 -1218 0
55 56 1218 0
-57 -1219 0
1211 -1219 0
57 -1211 1219 0
-54 -1220 0
-58 -1220 0
54 58 1220 0
-54 -1221 0
59 -1221 0
54 -59 1221 0
54 -1222 0
-59 -1222 0
-54 59 1222 0
-60 -1223 0
-61 -1223 0
60 61 1223 0
-7 -1224 0
23 -1224 0
7 -23 1224 0
7 -1225 0
-23 -1225 0
-7 23 1225 0
-63 -1226 0
-64 -1226 0
63 64 1226 0
-6 -1227 0
22 -1227 0
6 -22 1227 0
6 -1228 0
-22 -1228 0
-6 22 1228 0
-66 -1229 0
-67 -1229 0
66 67 1229 0
-5 -1230 0
21 -1230 0
5 -21 1230 0
5 -1231 0
-21 -1231 0
-5 21 1231 0
-69 -1232 0
-70 -1232 0
69 70 1232 0
-24 -1233 0
-72 -1233 0
24 72 1233 0
-23 -1234 0
-74 -1234 0
23 74 1234 0
-22 -1235 0
-76 -1235 0
22 76 1235 0
-21 -1236 0
-78 -1236 0
21 78 1236 0
-71 -1237 0
-77 -1237 0
71 77 1237 0
-68 -1238 0
-71 -1238 0
68 71 1238 0
-75 -1239 0
1238 -1239 0
75 -1238 1239 0
-65 -1240 0
1238 -1240 0
65 -1238 1240 0
-73 -1241 0
1240 -1241 0
73 -1240 1241 0
-80 -1242 0
-81 -1242 0
80 81 1242 0
-82 -1243 0
-83 -1243 0
82 83 1243 0
1242 -1244 0
1243 -1244 0
-1242 -1243 1244 0
-8 -1245 0
24 -1245 0
8 -24 1245 0
8 -1246 0
-24 -1246 0
-8 24 1246 0
-85 -1247 0
-86 -1247 0
85 86 1247 0
-87 -1248 0
1240 -1248 0
87 -1240 1248 0
-84 -1249 0
-88 -1249 0
84 88 1249 0
-84 -1250 0
89 -1250 0
84 -89 1250 0
84 -1251 0
-89 -1251 0
-84 89 1251 0
-90 -1252 0
-91 -1252 0
90 91 1252 0
-3 -1253 0
19 -1253 0
3 -19 1253 0
3 -1254 0
-19 -1254 0
-3 19 1254 0
-93 -1255 0
-94 -1255 0
93 94 1255 0
-2 -1256 0
18 -1256 0
2 -18 1256 0
2 -1257 0
-18 -1257 0
-2 18 1257 0
-96 -1258 0
-97 -1258 0
96 97 1258 0
-1 -1259 0
17 -1259 0
1 -17 1259 0
1 -1260 0
-17 -1260 0
-1 17 1260 0
-99 -1261 0
-100 -1261 0
99 100 1261 0
-20 -1262 0
-102 -1262 0
20 102 1262 0
-19 -1263 0
-104 -1263 0
19 104 1263 0
-18 -1264 0
-106 -1264 0
18 106 1264 0
-17 -1265 0
-108 -1265 0
17 108 1265 0
-101 -1266 0
-107 -1266 0
101 107 1266 0
-98 -1267 0
-101 -1267 0
98 101 1267 0
-105 -1268 0
1267 -1268 0
105 -1267 1268 0
-95 -1269 0
1267 -1269 0
95 -1267 1269 0
-103 -1270 0
1269 -1270 0
103 -1269 1270 0
-110 -1271 0
-111 -1271 0
110 111 1271 0
-112 -1272 0
-113 -1272 0
112 113 1272 0
1271 -1273 0
1272 -1273 0
-1271 -1272 1273 0
-4 -1274 0
20 -1274 0
4 -20 1274 0
4 -1275 0
-20 -1275 0
-4 20 1275 0
-115 -1276 0
-116 -1276 0
115 116 1276 0
-117 -1277 0
1269 -1277 0
117 -1269 1277 0
-114 -1278 0
-118 -1278 0
114 118 1278 0
-114 -1279 0
119 -1279 0
114 -119 1279 0
114 -1280 0
-119 -1280 0
-114 119 1280 0
-120 -1281 0
-121 -1281 0
120 121 1281 0
-15 -1282 0
31 -1282 0
15 -31 1282 0
15 -1283 0
-31 -1283 0
-15 31 1283 0
-123 -1284 0
-124 -1284 0
123 124 1284 0
-14 -1285 0
30 -1285 0
14 -30 1285 0
14 -1286 0
-30 -1286 0
-14 30 1286 0
-126 -1287 0
-127 -1287 0
126 127 1287 0
-13 -1288 0
29 -1288 0
13 -29 1288 0
13 -1289 0
-29 -1289 0
-13 29 1289 0
-129 -1290 0
-130 -1290 0
129 130 1290 0
-32 -1291 0
-132 -1291 0
32 132 1291 0
-31 -1292 0
-134 -1292 0
31 134 1292 0
-30 -1293 0
-136 -1293 0
30 136 1293 0
-29 -1294 0
-138 -1294 0
29 138 1294 0
-131 -1295 0
-137 -1295 0
131 137 1295 0
-128 -1296 0
-131 -1296 0
128 131 1296 0
-135 -1297 0
1296 -1297 0
135 -1296 1297 0
-125 -1298 0
1296 -1298 0
125 -1296 1298 0
-133 -1299 0
1298 -1299 0
133 -1298 1299 0
-140 -1300 0
-141 -1300 0
140 141 1300 0
-142 -1301 0
-143 -1301 0
142 143 1301 0
1300 -1302 0
1301 -1302 0
-1300 -1301 1302 0
-16 -1303 0
32 -1303 0
16 -32 1303 0
16 -1304 0
-32 -1304 0
-16 32 1304 0
-145 -1305 0
-146 -1305 0
145 146 1305 0
-147 -1306 0
1298 -1306 0
147 -1298 1306 0
-144 -1307 0
-148 -1307 0
144 148 1307 0
-149 -1308 0
-150 -1308 0
149 150 1308 0
-59 -1309 0
-152 -1309 0
59 152 1309 0
-89 -1310 0
-154 -1310 0
89 154 1310 0
-119 -1311 0
-156 -1311 0
119 156 1311 0
-122 -1312 0
-155 -1312 0
122 155 1312 0
-92 -1313 0
-122 -1313 0
92 122 1313 0
-153 -1314 0
1313 -1314 0
153 -1313 1314 0
-62 -1315 0
1313 -1315 0
62 -1313 1315 0
-151 -1316 0
1315 -1316 0
151 -1315 1316 0
-158 -1317 0
-159 -1317 0
158 159 1317 0
-160 -1318 0
-161 -1318 0
160 161 1318 0
1317 -1319 0
1318 -1319 0
-1317 -1318 1319 0
-144 -1320 0
149 -1320 0
144 -149 1320 0
144 -1321 0
-149 -1321 0
-144 149 1321 0
-163 -1322 0
-164 -1322 0
163 164 1322 0
-165 -1323 0
1315 -1323 0
165 -1315 1323 0
-162 -1324 0
-166 -1324 0
162 166 1324 0
-190 -1325 0
-191 -1325 0
190 191 1325 0
-193 -1326 0
-194 -1326 0
193 194 1326 0
-196 -1327 0
-197 -1327 0
196 197 1327 0
-28 -1328 0
-199 -1328 0
28 199 1328 0
-27 -1329 0
-201 -1329 0
27 201 1329 0
-26 -1330 0
-203 -1330 0
26 203 1330 0
-25 -1331 0
-205 -1331 0
25 205 1331 0
-198 -1332 0
-204 -1332 0
198 204 1332 0
-195 -1333 0
-198 -1333 0
195 198 1333 0
-202 -1334 0
1333 -1334 0
202 -1333 1334 0
-192 -1335 0
1333 -1335 0
192 -1333 1335 0
-200 -1336 0
1335 -1336 0
200 -1335 1336 0
-207 -1337 0
-208 -1337 0
207 208 1337 0
-209 -1338 0
-210 -1338 0
209 210 1338 0
1337 -1339 0
1338 -1339 0
-1337 -1338 1339 0
-212 -1340 0
-213 -1340 0
212 213 1340 0
-214 -1341 0
1335 -1341 0
214 -1335 1341 0
-211 -1342 0
-215 -1342 0
211 215 1342 0
-211 -1343 0
216 -1343 0
211 -216 1343 0
211 -1344 0
-216 -1344 0
-211 216 1344 0
-217 -1345 0
-218 -1345 0
217 218 1345 0
-220 -1346 0
-221 -1346 0
220 221 1346 0
-223 -1347 0
-224 -1347 0
223 224 1347 0
-24 -1348 0
-226 -1348 0
24 226 1348 0
-23 -1349 0
-228 -1349 0
23 228 1349 0
-22 -1350 0
-230 -1350 0
22 230 1350 0
-225 -1351 0
-231 -1351 0
225 231 1351 0
-222 -1352 0
-225 -1352 0
222 225 1352 0
-229 -1353 0
1352 -1353 0
229 -1352 1353 0
-232 -1354 0
-233 -1354 0
232 233 1354 0
-234 -1355 0
-235 -1355 0
234 235 1355 0
1354 -1356 0
1355 -1356 0
-1354 -1355 1356 0
-237 -1357 0
-238 -1357 0
237 238 1357 0
-236 -1358 0
-240 -1358 0
236 240 1358 0
-241 -1359 0
-242 -1359 0
241 242 1359 0
236 -1360 0
-241 -1360 0
-236 241 1360 0
-246 -1361 0
-247 -1361 0
246 247 1361 0
-249 -1362 0
-250 -1362 0
249 250 1362 0
-252 -1363 0
-253 -1363 0
252 253 1363 0
-255 -1364 0
-256 -1364 0
255 256 1364 0
-32 -1365 0
-258 -1365 0
32 258 1365 0
-31 -1366 0
-260 -1366 0
31 260 1366 0
-30 -1367 0
-262 -1367 0
30 262 1367 0
-257 -1368 0
-263 -1368 0
257 263 1368 0
-254 -1369 0
-257 -1369 0
254 257 1369 0
-261 -1370 0
1369 -1370 0
261 -1369 1370 0
-251 -1371 0
1369 -1371 0
251 -1369 1371 0
-259 -1372 0
1371 -1372 0
259 -1371 1372 0
-264 -1373 0
-265 -1373 0
264 265 1373 0
-266 -1374 0
-267 -1374 0
266 267 1374 0
1373 -1375 0
1374 -1375 0
-1373 -1374 1375 0
-269 -1376 0
-270 -1376 0
269 270 1376 0
-271 -1377 0
1371 -1377 0
271 -1371 1377 0
-268 -1378 0
-272 -1378 0
268 272 1378 0
-273 -1379 0
-274 -1379 0
273 274 1379 0
-216 -1380 0
-276 -1380 0
216 276 1380 0
-241 -1381 0
-278 -1381 0
241 278 1381 0
247 -1382 0
-280 -1382 0
-247 280 1382 0
-248 -1383 0
-279 -1383 0
248 279 1383 0
-282 -1384 0
-283 -1384 0
282 283 1384 0
-268 -1385 0
273 -1385 0
268 -273 1385 0
268 -1386 0
-273 -1386 0
-268 273 1386 0
-287 -1387 0
-288 -1387 0
287 288 1387 0
-286 -1388 0
-290 -1388 0
286 290 1388 0
-292 -1389 0
-293 -1389 0
292 293 1389 0
-295 -1390 0
-296 -1390 0
295 296 1390 0
-20 -1391 0
-298 -1391 0
20 298 1391 0
-19 -1392 0
-300 -1392 0
19 300 1392 0
-18 -1393 0
-302 -1393 0
18 302 1393 0
-17 -1394 0
-304 -1394 0
17 304 1394 0
-306 -1395 0
-307 -1395 0
306 307 1395 0
167 -1396 0
-291 -1396 0
-167 291 1396 0
-167 -1397 0
291 -1397 0
167 -291 1397 0
-1396 -1398 0
-1397 -1398 0
1396 1397 1398 0
166 -1399 0
-290 -1399 0
-166 290 1399 0
-166 -1400 0
290 -1400 0
166 -290 1400 0
-1399 -1401 0
-1400 -1401 0
1399 1400 1401 0
162 -1402 0
-286 -1402 0
-162 286 1402 0
-162 -1403 0
286 -1403 0
162 -286 1403 0
-1402 -1404 0
-1403 -1404 0
1402 1403 1404 0
310 -1405 0
311 -1405 0
-310 -311 1405 0
312 -1406 0
1405 -1406 0
-312 -1405 1406 0
-3 -1407 0
-174 -1407 0
3 174 1407 0
3 -1408 0
174 -1408 0
-3 -174 1408 0
-1407 -1409 0
-1408 -1409 0
1407 1408 1409 0
-19 -1410 0
-175 -1410 0
19 175 1410 0
19 -1411 0
175 -1411 0
-19 -175 1411 0
-1410 -1412 0
-1411 -1412 0
1410 1411 1412 0
-5 -1413 0
-176 -1413 0
5 176 1413 0
5 -1414 0
176 -1414 0
-5 -176 1414 0
-1413 -1415 0
-1414 -1415 0
1413 1414 1415 0
-21 -1416 0
-177 -1416 0
21 177 1416 0
21 -1417 0
177 -1417 0
-21 -177 1417 0
-1416 -1418 0
-1417 -1418 0
1416 1417 1418 0
-7 -1419 0
-178 -1419 0
7 178 1419 0
7 -1420 0
178 -1420 0
-7 -178 1420 0
-1419 -1421 0
-1420 -1421 0
1419 1420 1421 0
-23 -1422 0
-179 -1422 0
23 179 1422 0
23 -1423 0
179 -1423 0
-23 -179 1423 0
-1422 -1424 0
-1423 -1424 0
1422 1423 1424 0
-13 -1425 0
-180 -1425 0
13 180 1425 0
13 -1426 0
180 -1426 0
-13 -180 1426 0
-1425 -1427 0
-1426 -1427 0
1425 1426 1427 0
-29 -1428 0
-181 -1428 0
29 181 1428 0
29 -1429 0
181 -1429 0
-29 -181 1429 0
-1428 -1430 0
-1429 -1430 0
1428 1429 1430 0
-183 -1431 0
-294 -1431 0
183 294 1431 0
183 -1432 0
294 -1432 0
-183 -294 1432 0
-1431 -1433 0
-1432 -1433 0
1431 1432 1433 0
-184 -1434 0
-297 -1434 0
184 297 1434 0
184 -1435 0
297 -1435 0
-184 -297 1435 0
-1434 -1436 0
-1435 -1436 0
1434 1435 1436 0
-185 -1437 0
-299 -1437 0
185 299 1437 0
185 -1438 0
299 -1438 0
-185 -299 1438 0
-1437 -1439 0
-1438 -1439 0
1437 1438 1439 0
-186 -1440 0
-301 -1440 0
186 301 1440 0
186 -1441 0
301 -1441 0
-186 -301 1441 0
-1440 -1442 0
-1441 -1442 0
1440 1441 1442 0
-187 -1443 0
-1257 -1443 0
187 1257 1443 0
187 -1444 0
1257 -1444 0
-187 -1257 1444 0
-1443 -1445 0
-1444 -1445 0
1443 1444 1445 0
-188 -1446 0
-1260 -1446 0
188 1260 1446 0
188 -1447 0
1260 -1447 0
-188 -1260 1447 0
-1446 -1448 0
-1447 -1448 0
1446 1447 1448 0
-189 -1449 0
-309 -1449 0
189 309 1449 0
189 -1450 0
309 -1450 0
-189 -309 1450 0
-1449 -1451 0
-1450 -1451 0
1449 1450 1451 0
